************************************************************************
file with basedata            : md153_.bas
initial value random generator: 353511732
************************************************************************
projects                      :  1
jobs (incl. supersource/sink ):  16
horizon                       :  116
RESOURCES
  - renewable                 :  2   R
  - nonrenewable              :  2   N
  - doubly constrained        :  0   D
************************************************************************
PROJECT INFORMATION:
pronr.  #jobs rel.date duedate tardcost  MPM-Time
    1     14      0       21        2       21
************************************************************************
PRECEDENCE RELATIONS:
jobnr.    #modes  #successors   successors
   1        1          3           2   3   4
   2        3          3           6   9  11
   3        3          3           9  10  11
   4        3          2           5  10
   5        3          2           7  12
   6        3          2           8  15
   7        3          3           9  11  13
   8        3          1          12
   9        3          2          14  15
  10        3          2          12  13
  11        3          2          14  15
  12        3          1          14
  13        3          1          16
  14        3          1          16
  15        3          1          16
  16        1          0        
************************************************************************
REQUESTS/DURATIONS:
jobnr. mode duration  R 1  R 2  N 1  N 2
------------------------------------------------------------------------
  1      1     0       0    0    0    0
  2      1     6       0    6    4    0
         2     9       0    6    2    0
         3    10       0    6    0    7
  3      1     4       0   10    5    0
         2     7       9    0    4    0
         3     8       5    0    0    3
  4      1     2       8    0    0   10
         2     2       8    0    4    0
         3     8       2    0    4    0
  5      1     1       0   10    8    0
         2     2       0    6    8    0
         3    10       3    0    0    3
  6      1     1       0    9    8    0
         2     8       0    7    1    0
         3     9       8    0    0    3
  7      1     2       9    0    5    0
         2     6       7    0    0    4
         3    10       0    7    4    0
  8      1     2       6    0   10    0
         2     4       6    0    0    6
         3     5       4    0   10    0
  9      1     8       0    6    5    0
         2     9       0    5    0    4
         3    10       2    0    0    2
 10      1     3       3    0    0    4
         2     4       3    0    4    0
         3     5       0    2    0    2
 11      1     1       0    5    0    7
         2     4       6    0    0    5
         3     8       0    3    0    5
 12      1     4       0    9    3    0
         2     7       0    9    0    4
         3     9       0    8    0    4
 13      1     3       9    0    7    0
         2     7       8    0    0    6
         3     9       5    0    0    6
 14      1     7       9    0    0    7
         2     8       0    2    7    0
         3     9       6    0    0    7
 15      1     4       4    0    6    0
         2     4       4    0    0    6
         3     6       0    5    7    0
 16      1     0       0    0    0    0
************************************************************************
RESOURCEAVAILABILITIES:
  R 1  R 2  N 1  N 2
   10   13   77   74
************************************************************************
